g9 0 1 0 20 20030626 0 4 1 4	# problem score
 82 20 1 0 20	# vars, constraints, objectives, ranges, eqns
 0 0	# nonlinear constraints, objectives
 0 0	# network constraints: nonlinear, linear
 0 0 0	# nonlinear vars in constraints, objectives, both
 0 0 0 1	# linear network variables; functions; arith, flags
 0 0 0 0 0	# discrete variables: binary, integer, nonlinear (b,c,o)
 353 46	# nonzeros in Jacobian, gradients
 0 0	# max name lengths: constraints, variables
 0 0 0 0 0	# common exprs: b,c,o,c1,o1
C0
n0
C1
n0
C2
n0
C3
n0
C4
n0
C5
n0
C6
n0
C7
n0
C8
n0
C9
n0
C10
n0
C11
n0
C12
n0
C13
n0
C14
n0
C15
n0
C16
n0
C17
n0
C18
n0
C19
n0
O0 0
n0
r
4 0
4 0
4 0
4 0
4 0
4 0
4 0
4 0
4 0
4 0
4 0
4 0
4 0
4 0
4 0
4 0
4 0
4 0
4 0
4 0
b
3
1 0
2 0
1 0
2 0
1 0
2 0
2 0
2 0
2 0
2 0
1 0
2 0
2 0
1 0
2 0
1 15.75
0 0 442.86899999999997
0 0 414.941
2 0
1 15.75
0 0 498.08850000000007
0 0 464.90149999999994
2 0
1 15.75
0 0 468.321
0 0 437.96899999999994
2 0
1 15.75
0 0 518.4585
0 0 483.3315
2 0
1 15.75
0 0 518.322
0 0 483.20799999999997
2 0
1 15.75
0 0 491.358
0 0 458.81199999999995
2 0
1 14.25
0 0 456.59
2 0
1 14.25
0 0 464.62
2 0
1 14.25
0 0 466.73
2 0
1 14.25
0 0 383.75
2 0
1 14.25
0 0 372.06
2 0
1 14.25
0 0 426.38
2 0
1 14.25
0 0 493.66
2 0
1 14.25
0 0 386.47
2 0
1 14.25
0 0 380.05
2 0
1 14.25
0 0 377.97
2 0
1 14.25
0 0 427.3
2 0
1 14.25
0 0 429.27
2 0
1 14.25
0 0 389.86
2 0
1 14.25
0 0 401.74
2 0
k81
20
39
59
79
99
119
139
159
179
199
219
237
254
270
281
287
288
289
290
291
292
293
294
295
296
297
298
299
300
301
302
303
304
305
306
307
308
309
310
311
312
313
314
315
316
317
318
319
320
321
322
323
324
325
326
327
328
329
330
331
332
333
334
335
336
337
338
339
340
341
342
343
344
345
346
347
348
349
350
351
352
J0 18
0 -1
1 -1
2 -5
3 -25
4 -20
5 -10
6 -8
7 -12
8 -6
9 -6
10 -4
11 -0.5
12 -1.5
15 -1
16 1
17 1
18 1
19 1
J1 19
0 -1
1 -0.5
2 -10
3 -25
4 -40
5 -8
6 -10
7 -10
8 -10
9 -10
10 -8
11 -0.5
12 -0.5
13 -1
15 -1
20 1
21 1
22 1
23 1
J2 19
0 -1
1 -1
2 -10
3 -15
4 -20
5 -10
6 -10
7 -8
8 -10
9 -12
10 -10
11 -0.5
12 -1
13 -1
15 -1
24 1
25 1
26 1
27 1
J3 20
0 -1
1 -0.5
2 -10
3 -25
4 -35
5 -8
6 -10
7 -10
8 -8
9 -14
10 -4
11 -1.5
12 -0.5
13 -1
14 -1
15 -1
28 1
29 1
30 1
31 1
J4 19
0 -1
1 -1.5
2 -10
3 -25
4 -30
5 -8
6 -6
7 -10
8 -12
9 -14
10 -12
11 -1
12 -0.5
13 -1
14 -1
32 1
33 1
34 1
35 1
J5 18
0 -1
1 -1.5
2 -5
3 -20
4 -25
5 -8
6 -8
7 -8
8 -8
9 -6
10 -16
11 -0.5
13 -1.5
14 -1
36 1
37 1
38 1
39 1
J6 17
0 -1
1 -1
2 -10
3 -25
4 -30
5 -8
6 -6
7 -6
8 -10
9 -10
10 -16
11 -1
12 -1
14 -1
40 1
41 1
42 1
J7 18
0 -1
1 -1
2 -5
3 -20
4 -20
5 -8
6 -6
7 -14
8 -10
9 -10
10 -10
11 -1
12 -1
13 -0.5
14 -1
43 1
44 1
45 1
J8 18
0 -1
1 -1
2 -5
3 -25
4 -25
5 -8
6 -8
7 -4
8 -8
9 -10
10 -12
11 -0.5
12 -1
13 -1
14 -1
46 1
47 1
48 1
J9 17
0 -1
1 -0.5
2 -10
3 -25
4 -30
5 -8
6 -10
7 -8
8 -14
9 -10
10 -16
11 -1
12 -1.5
13 -1
49 1
50 1
51 1
J10 16
0 -1
1 -1
2 -10
3 -25
4 -25
5 -8
6 -12
7 -12
8 -6
9 -14
10 -8
11 -1.5
12 -1
52 1
53 1
54 1
J11 17
0 -1
1 -0.5
2 -5
3 -20
4 -40
5 -8
6 -10
7 -12
8 -4
9 -8
10 -10
11 -1
12 -1
13 -1
55 1
56 1
57 1
J12 19
0 -1
1 -1
2 -10
3 -15
4 -35
5 -8
6 -6
7 -12
8 -8
9 -8
10 -16
11 -0.5
12 -0.5
13 -1
14 -1
15 -1
58 1
59 1
60 1
J13 18
0 -1
1 -0.5
2 -10
3 -10
4 -25
5 -10
6 -10
7 -4
8 -4
9 -8
10 -6
11 -0.5
12 -0.5
13 -1
14 -1
61 1
62 1
63 1
J14 16
0 -1
1 -1
2 -10
3 -20
4 -30
5 -8
6 -12
7 -12
8 -8
9 -14
10 -14
11 -1
13 -0.5
64 1
65 1
66 1
J15 17
0 -1
1 -0.5
2 -5
3 -20
4 -25
5 -8
6 -10
7 -8
8 -10
9 -6
10 -8
11 -0.5
13 -1
14 -1
67 1
68 1
69 1
J16 17
0 -1
1 -0.5
2 -5
3 -25
4 -30
5 -10
6 -8
7 -10
8 -8
9 -4
10 -12
12 -1
13 -1
14 -1
70 1
71 1
72 1
J17 16
0 -1
1 -1
2 -10
3 -15
4 -20
5 -10
6 -8
7 -10
8 -8
9 -10
10 -6
11 -1.5
12 -1
73 1
74 1
75 1
J18 16
0 -1
2 -5
3 -15
4 -40
5 -8
6 -10
7 -8
8 -14
9 -4
10 -14
12 -1.5
13 -1
15 -1
76 1
77 1
78 1
J19 18
0 -1
1 -1
2 -5
3 -5
4 -30
5 -8
6 -8
7 -6
8 -6
9 -14
10 -2
11 -0.5
12 -1
13 -0.5
14 -1
79 1
80 1
81 1
G0 46
16 -3.4166666666666665
17 -1.7083333333333333
19 1.7083333333333333
20 -3.4166666666666665
21 -1.7083333333333333
23 1.7083333333333333
24 -3.4166666666666665
25 -1.7083333333333333
27 1.7083333333333333
28 -3.4166666666666665
29 -1.7083333333333333
31 1.7083333333333333
32 -3.4166666666666665
33 -1.7083333333333333
35 1.7083333333333333
36 -3.4166666666666665
37 -1.7083333333333333
39 1.7083333333333333
41 0.6964285714285715
42 1.392857142857143
44 0.6964285714285715
45 1.392857142857143
47 0.6964285714285715
48 1.392857142857143
50 0.6964285714285715
51 1.392857142857143
53 0.6964285714285715
54 1.392857142857143
56 0.6964285714285715
57 1.392857142857143
59 0.6964285714285715
60 1.392857142857143
62 0.6964285714285715
63 1.392857142857143
65 0.6964285714285715
66 1.392857142857143
68 0.6964285714285715
69 1.392857142857143
71 0.6964285714285715
72 1.392857142857143
74 0.6964285714285715
75 1.392857142857143
77 0.6964285714285715
78 1.392857142857143
80 0.6964285714285715
81 1.392857142857143
